100
14 0
24 0
27 0
13 4
29 1
24 4
27 3
42 4
19 2
34 1
36 3
4 4
43 2
38 3
43 4
13 0
27 4
10 4
23 4
9 3
33 0
21 0
33 4
25 4
12 0
3 3
13 2
41 3
23 0
30 4
20 0
10 0
39 4
4 0
28 0
5 4
3 4
32 3
13 1
22 4
41 2
16 1
5 1
34 4
1 0
7 0
40 4
28 4
14 4
3 1
38 1
11 0
24 3
29 4
6 4
2 3
3 0
0 0
25 2
34 2
25 3
22 3
37 4
1 4
25 1
40 0
36 4
21 3
18 3
6 2
5 0
31 4
38 0
21 4
37 1
43 0
32 4
16 0
28 1
36 0
23 1
33 1
22 0
15 0
14 2
18 0
16 2
7 4
29 2
6 3
31 0
19 0
18 4
29 0
33 3
31 3
18 1
34 0
37 0
36 1

